10046.96,60.54,75.1
9605.83,63.32,78.54
9963.14,61.05,75.73
10237.86,59.41,73.7
9508.36,63.97,79.35
10480.13,58.04,71.99
9889.45,61.5,76.29
9753.32,62.36,77.36
10161.77,59.85,74.25
10098.27,60.23,74.71
9527.12,63.84,79.19
9661.42,62.95,78.09
9390.03,64.77,80.35
10115.4,60.13,74.59
10734.43,56.66,70.29
10985.12,55.37,68.68
10761.57,56.52,70.11
10500.45,57.92,71.85
10635.5,57.19,70.94
10192.15,59.67,74.03
